* ENCODING=ISO-8859-1
NAME          CPLEX
ROWS
 N  obj1    
 G  c1      
 G  c2      
 G  c3      
 G  c4      
 G  c5      
 G  c6      
 G  c7      
 G  c8      
 G  c9      
 G  c10     
 G  c11     
 G  c12     
 G  c13     
 G  c14     
 G  c15     
 G  c16     
 G  c17     
 G  c18     
 G  c19     
 G  c20     
 G  c21     
 G  c22     
 G  c23     
 G  c24     
 G  c25     
 G  c26     
 G  c27     
 G  c28     
 G  c29     
 G  c30     
 G  c31     
 G  c32     
 G  c33     
 G  c34     
 G  c35     
COLUMNS
    MARK0000  'MARKER'                 'INTORG'
    x1        obj1                            1
    x1        c7                            338
    x1        c18                           108
    x1        c23                           803
    x1        c24                           327
    x1        c34                           311
    x2        obj1                            1
    x2        c1                            244
    x2        c5                            688
    x2        c8                            807
    x2        c16                           881
    x2        c17                           748
    x3        obj1                            1
    x3        c5                            376
    x3        c9                            889
    x3        c15                           229
    x4        obj1                            1
    x4        c10                           833
    x4        c21                           591
    x4        c27                           985
    x4        c30                           931
    x5        obj1                            1
    x5        c1                            794
    x5        c12                           184
    x5        c16                           173
    x5        c19                           286
    x5        c32                           856
    x5        c35                           875
    x6        obj1                            1
    x6        c1                            826
    x6        c20                           433
    x7        obj1                            1
    x7        c23                           409
    x7        c29                           540
    x8        obj1                            1
    x8        c1                            667
    x8        c17                           248
    x9        obj1                            1
    x9        c15                           442
    x9        c20                           651
    x9        c23                           757
    x10       obj1                            1
    x11       obj1                            1
    x11       c6                            325
    x11       c15                           426
    x11       c21                           194
    x11       c32                           118
    x12       obj1                            1
    x12       c4                            927
    x12       c5                            400
    x12       c17                           274
    x12       c22                           198
    x13       obj1                            1
    x13       c10                           304
    x13       c25                           748
    x14       obj1                            1
    x14       c1                            337
    x14       c10                           990
    x14       c12                           115
    x14       c16                           708
    x14       c17                           745
    x14       c22                           859
    x15       obj1                            1
    x15       c3                            446
    x15       c8                            896
    x15       c13                           381
    x15       c30                           596
    x16       obj1                            1
    x16       c6                            198
    x16       c7                            369
    x16       c23                           235
    x17       obj1                            1
    x17       c2                            679
    x17       c3                            774
    x17       c17                           154
    x17       c25                           460
    x18       obj1                            1
    x18       c4                            378
    x18       c25                           134
    x19       obj1                            1
    x19       c11                           557
    x19       c28                           316
    x19       c33                           419
    x20       obj1                            1
    x20       c6                            295
    x21       obj1                            1
    x21       c3                            336
    x21       c10                           825
    x22       obj1                            1
    x22       c11                           455
    x22       c12                           764
    x22       c25                           950
    x23       obj1                            1
    x23       c3                            306
    x23       c6                            437
    x23       c9                            450
    x23       c27                           126
    x23       c30                           525
    x24       obj1                            1
    x24       c2                            361
    x24       c15                           403
    x24       c17                           948
    x25       obj1                            1
    x25       c17                           739
    x25       c22                           418
    x25       c31                           517
    x26       obj1                            1
    x26       c11                           505
    x26       c13                           686
    x26       c24                           541
    x26       c28                           813
    x26       c29                           147
    x26       c32                           565
    x27       obj1                            1
    x27       c20                           641
    x27       c21                           476
    x27       c22                           986
    x28       obj1                            1
    x28       c3                            713
    x28       c11                           131
    x28       c19                           643
    x29       obj1                            1
    x29       c4                            836
    x29       c10                           290
    x29       c14                           812
    x29       c18                           145
    x29       c21                           848
    x29       c22                           540
    x29       c25                           454
    x30       obj1                            1
    x30       c6                            992
    x30       c20                           941
    x30       c24                           815
    x30       c27                           507
    x30       c28                           203
    x30       c29                           570
    x31       obj1                            1
    x31       c9                            309
    x31       c10                           317
    x31       c31                           791
    x32       obj1                            1
    x32       c4                            219
    x32       c19                           946
    x32       c24                           207
    x32       c29                           518
    x33       obj1                            1
    x33       c16                           284
    x33       c22                           869
    x33       c31                           188
    x34       obj1                            1
    x34       c9                            914
    x34       c11                           770
    x34       c30                           104
    x35       obj1                            1
    x35       c10                           445
    x36       obj1                            1
    x36       c5                            443
    x36       c25                           638
    x37       obj1                            1
    x37       c12                           363
    x37       c21                           261
    x37       c25                           181
    x37       c34                           641
    x38       obj1                            1
    x38       c25                           191
    x38       c26                           812
    x38       c32                           140
    x39       obj1                            1
    x39       c13                           468
    x39       c20                           857
    x39       c22                           586
    x39       c26                           103
    x40       obj1                            1
    x40       c1                            863
    x40       c14                           686
    x40       c16                           729
    x40       c18                           382
    x41       obj1                            1
    x41       c11                           432
    x41       c18                           673
    x41       c29                           846
    x41       c30                           787
    x42       obj1                            1
    x42       c6                            401
    x42       c32                           278
    x43       obj1                            1
    x44       obj1                            1
    x44       c1                            126
    x44       c3                            656
    x44       c21                           419
    x44       c31                           800
    x45       obj1                            1
    x45       c11                           864
    x45       c13                           210
    x45       c17                           221
    x45       c18                           668
    x45       c21                           899
    x45       c28                           685
    x46       obj1                            1
    x46       c8                            599
    x46       c16                           909
    x47       obj1                            1
    x47       c31                           527
    x48       obj1                            1
    x48       c26                           383
    x49       obj1                            1
    x49       c4                            115
    x49       c17                           949
    x49       c27                           440
    x50       obj1                            1
    x50       c5                            687
    x50       c23                           774
    x50       c25                           175
    x51       obj1                            1
    x51       c30                           365
    x51       c31                           228
    x51       c32                           380
    x52       obj1                            1
    x52       c6                            953
    x52       c11                           477
    x52       c18                           521
    x53       obj1                            1
    x53       c3                            340
    x53       c23                           608
    x53       c26                           426
    x53       c29                           201
    x53       c30                           339
    x53       c33                           309
    x54       obj1                            1
    x54       c3                            722
    x54       c8                            111
    x54       c18                           953
    x54       c31                           405
    x54       c35                           916
    x55       obj1                            1
    x55       c1                            197
    x55       c12                           349
    x55       c16                           188
    x55       c32                           641
    x56       obj1                            1
    x56       c23                           159
    x56       c30                           160
    x56       c33                           537
    x56       c34                           489
    x57       obj1                            1
    x57       c5                            478
    x57       c12                           536
    x58       obj1                            1
    x58       c7                            915
    x58       c19                           700
    x58       c35                           872
    x59       obj1                            1
    x59       c1                            206
    x59       c2                            503
    x59       c7                            236
    x59       c22                           307
    x59       c25                           373
    x60       obj1                            1
    x60       c10                           786
    x60       c28                           762
    x60       c31                           713
    x61       obj1                            1
    x61       c13                           155
    x61       c14                           501
    x61       c28                           192
    x61       c34                           329
    x62       obj1                            1
    x62       c5                            206
    x62       c18                           141
    x62       c28                           607
    x63       obj1                            1
    x63       c4                            318
    x63       c9                            826
    x63       c32                           152
    x64       obj1                            1
    x64       c10                           896
    x64       c29                           577
    x65       obj1                            1
    x65       c2                            103
    x65       c12                           918
    x65       c20                           757
    x65       c28                           203
    x65       c33                           167
    x66       obj1                            1
    x66       c3                            428
    x66       c6                            438
    x66       c12                           371
    x67       obj1                            1
    x67       c8                            117
    x67       c18                           562
    x67       c33                           603
    x68       obj1                            1
    x68       c5                            328
    x68       c18                           171
    x68       c23                           856
    x68       c24                           425
    x68       c35                           470
    x69       obj1                            1
    x69       c4                            302
    x69       c6                            107
    x69       c9                            271
    x69       c14                           326
    x69       c29                           235
    x69       c35                           212
    x70       obj1                            1
    x70       c4                            912
    x70       c8                            784
    x70       c10                           308
    x70       c15                           820
    x70       c23                           167
    x70       c24                           509
    MARK0001  'MARKER'                 'INTEND'
RHS
    rhs       c1                           2130
    rhs       c2                            823
    rhs       c3                           2361
    rhs       c4                           2004
    rhs       c5                           1803
    rhs       c6                           2073
    rhs       c7                            929
    rhs       c8                           1657
    rhs       c9                           1830
    rhs       c10                          2997
    rhs       c11                          2096
    rhs       c12                          1800
    rhs       c13                           950
    rhs       c14                          1163
    rhs       c15                          1160
    rhs       c16                          1936
    rhs       c17                          2513
    rhs       c18                          2162
    rhs       c19                          1288
    rhs       c20                          2140
    rhs       c21                          1844
    rhs       c22                          2382
    rhs       c23                          2384
    rhs       c24                          1412
    rhs       c25                          2152
    rhs       c26                           862
    rhs       c27                          1029
    rhs       c28                          1891
    rhs       c29                          1817
    rhs       c30                          1904
    rhs       c31                          2085
    rhs       c32                          1565
    rhs       c33                          1018
    rhs       c34                           885
    rhs       c35                          1673
BOUNDS
 LI bnd       x1        0
 LI bnd       x2        0
 LI bnd       x3        0
 LI bnd       x4        0
 LI bnd       x5        0
 LI bnd       x6        0
 LI bnd       x7        0
 LI bnd       x8        0
 LI bnd       x9        0
 LI bnd       x10       0
 LI bnd       x11       0
 LI bnd       x12       0
 LI bnd       x13       0
 LI bnd       x14       0
 LI bnd       x15       0
 LI bnd       x16       0
 LI bnd       x17       0
 LI bnd       x18       0
 LI bnd       x19       0
 LI bnd       x20       0
 LI bnd       x21       0
 LI bnd       x22       0
 LI bnd       x23       0
 LI bnd       x24       0
 LI bnd       x25       0
 LI bnd       x26       0
 LI bnd       x27       0
 LI bnd       x28       0
 LI bnd       x29       0
 LI bnd       x30       0
 LI bnd       x31       0
 LI bnd       x32       0
 LI bnd       x33       0
 LI bnd       x34       0
 LI bnd       x35       0
 LI bnd       x36       0
 LI bnd       x37       0
 LI bnd       x38       0
 LI bnd       x39       0
 LI bnd       x40       0
 LI bnd       x41       0
 LI bnd       x42       0
 LI bnd       x43       0
 LI bnd       x44       0
 LI bnd       x45       0
 LI bnd       x46       0
 LI bnd       x47       0
 LI bnd       x48       0
 LI bnd       x49       0
 LI bnd       x50       0
 LI bnd       x51       0
 LI bnd       x52       0
 LI bnd       x53       0
 LI bnd       x54       0
 LI bnd       x55       0
 LI bnd       x56       0
 LI bnd       x57       0
 LI bnd       x58       0
 LI bnd       x59       0
 LI bnd       x60       0
 LI bnd       x61       0
 LI bnd       x62       0
 LI bnd       x63       0
 LI bnd       x64       0
 LI bnd       x65       0
 LI bnd       x66       0
 LI bnd       x67       0
 LI bnd       x68       0
 LI bnd       x69       0
 LI bnd       x70       0
ENDATA
